<number of tasks>
50

<cycle time>
1000

<order strength>
0.199


<task times>
1 232
2 170
3 431
4 196
5 98
6 62
7 492
8 78
9 188
10 37
11 169
12 165
13 535
14 115
15 472
16 57
17 68
18 172
19 171
20 82
21 24
22 474
23 364
24 482
25 97
26 366
27 520
28 198
29 166
30 125
31 183
32 89
33 150
34 263
35 469
36 63
37 537
38 523
39 163
40 150
41 209
42 141
43 141
44 437
45 36
46 468
47 99
48 279
49 343
50 81

<precedence relations>
1,8
3,9
4,8
5,10
5,12
6,11
8,14
9,18
10,13
10,15
10,16
11,34
11,43
12,17
12,34
12,42
13,49
14,21
14,22
14,23
14,25
15,19
16,20
18,24
18,25
19,49
20,31
21,32
21,46
22,27
23,26
23,30
23,33
24,28
24,29
26,35
28,36
28,37
31,38
32,34
33,39
34,40
34,50
36,40
36,46
37,43
37,44
37,45
38,41
39,42
41,47
41,50
43,49
44,47
44,48
44,49
45,50

<end>
